NAME : E-n76-k14.623552.tour
COMMENT : Length = 623552
COMMENT : Found by LKH [Keld Helsgaun] Sun Dec 17 22:06:16 2017
TYPE : TOUR
DIMENSION : 89
TOUR_SECTION
1
5
46
30
6
38
84
35
47
9
20
55
82
68
53
28
14
58
16
78
76
69
31
75
22
70
79
49
48
37
72
61
71
21
80
52
50
25
19
51
26
56
77
33
10
40
32
83
7
34
64
24
57
89
3
63
23
29
62
87
54
12
67
85
74
2
44
42
43
65
86
18
41
45
4
17
81
27
8
36
15
60
88
13
73
59
11
39
66
-1
EOF
